(declare-const X String)
; /[a-z\d\x2f\x2b\x3d]{100,300}/Pi
(assert (str.in_re X (re.++ (str.to_re "/") ((_ re.loop 100 300) (re.union (re.range "a" "z") (re.range "0" "9") (str.to_re "/") (str.to_re "+") (str.to_re "="))) (str.to_re "/Pi\u{a}"))))
; /filename=[^\n]*\x2ejpeg/i
(assert (str.in_re X (re.++ (str.to_re "/filename=") (re.* (re.comp (str.to_re "\u{a}"))) (str.to_re ".jpeg/i\u{a}"))))
; /\/3\/[A-Z]{2}\/[a-f0-9]{32}\.djvu/
(assert (not (str.in_re X (re.++ (str.to_re "//3/") ((_ re.loop 2 2) (re.range "A" "Z")) (str.to_re "/") ((_ re.loop 32 32) (re.union (re.range "a" "f") (re.range "0" "9"))) (str.to_re ".djvu/\u{a}")))))
; ^L[a-zA-Z0-9]{26,33}$
(assert (not (str.in_re X (re.++ (str.to_re "L") ((_ re.loop 26 33) (re.union (re.range "a" "z") (re.range "A" "Z") (re.range "0" "9"))) (str.to_re "\u{a}")))))
; /^\x2f[A-Za-z0-9+~=]{16,17}\x2f[A-Za-z0-9+~=]{35,40}\x2f[A-Za-z0-9+~=]{8}\x2f[A-Za-z0-9+~=]*?\x2f[A-Za-z0-9+~=]{12,30}$/I
(assert (not (str.in_re X (re.++ (str.to_re "//") ((_ re.loop 16 17) (re.union (re.range "A" "Z") (re.range "a" "z") (re.range "0" "9") (str.to_re "+") (str.to_re "~") (str.to_re "="))) (str.to_re "/") ((_ re.loop 35 40) (re.union (re.range "A" "Z") (re.range "a" "z") (re.range "0" "9") (str.to_re "+") (str.to_re "~") (str.to_re "="))) (str.to_re "/") ((_ re.loop 8 8) (re.union (re.range "A" "Z") (re.range "a" "z") (re.range "0" "9") (str.to_re "+") (str.to_re "~") (str.to_re "="))) (str.to_re "/") (re.* (re.union (re.range "A" "Z") (re.range "a" "z") (re.range "0" "9") (str.to_re "+") (str.to_re "~") (str.to_re "="))) (str.to_re "/") ((_ re.loop 12 30) (re.union (re.range "A" "Z") (re.range "a" "z") (re.range "0" "9") (str.to_re "+") (str.to_re "~") (str.to_re "="))) (str.to_re "/I\u{a}")))))
(check-sat)
